AES/1_5_4/ssaes_r1-20_c5_rw1_e4_f0_k1-20_aes_1base_box_aes_mc_bidirectional/ExperimentMinisat_r19_k8cnf_2011-10-29-221047/Result
WARNING: for repeatability, setting FPU to use double precision
============================[ Problem Statistics ]=============================
|                                                                             |
|  Number of variables:          1732                                         |
|  Number of clauses:            7718                                         |
|  Parse time:                   0.00 s                                       |
|  Eliminated clauses:           0.02 Mb                                      |
|  Simplification time:          0.01 s                                       |
|                                                                             |
=============================[ Search Statistics ]==============================
| Conflicts  |          ORIGINAL         |          LEARNT          | Progress |
|            |    Vars  Clauses Literals |    Limit  Clauses Lit/Cl |          |
================================================================================
|        100 |    1216     6078    19904 |     2228      100     25 |  6.698 % |
|        250 |    1216     6078    19904 |     2451      250     24 |  6.697 % |
|        475 |    1216     6078    19904 |     2696      475     23 |  6.697 % |
|        812 |    1216     6078    19904 |     2966      812     24 |  6.697 % |
|       1318 |    1216     6078    19904 |     3262     1318     24 |  6.697 % |
|       2077 |    1216     6078    19904 |     3589     2077     24 |  6.697 % |
|       3216 |    1216     6078    19904 |     3948     3216     23 |  6.697 % |
|       4924 |    1216     6078    19904 |     4342     2866     20 |  6.697 % |
|       7486 |    1216     6078    19904 |     4777     3181     19 |  6.697 % |
|      11330 |    1216     6078    19904 |     5254     4569     21 |  6.697 % |
|      17096 |    1216     6078    19904 |     5780     4920     19 |  6.697 % |
|      25745 |    1216     6078    19904 |     6358     4659     19 |  6.697 % |
|      38719 |    1216     6078    19904 |     6994     4588     17 |  6.697 % |
|      58180 |    1216     6078    19904 |     7693     6175     20 |  6.697 % |
|      87372 |    1216     6078    19904 |     8463     3962     15 |  6.697 % |
|     131161 |    1216     6078    19904 |     9309     4612     16 |  6.697 % |
|     196845 |    1216     6078    19904 |    10240     8707     17 |  6.697 % |
|     295371 |    1216     6078    19904 |    11264     8485     17 |  6.697 % |
|     443160 |    1216     6078    19904 |    12390     7780     18 |  6.697 % |
|     664843 |    1216     6078    19904 |    13629     9936     18 |  6.697 % |
|     997368 |    1216     6078    19904 |    14992    11654     17 |  6.697 % |
|    1496156 |    1216     6078    19904 |    16492    10553     16 |  6.697 % |
|    2244338 |    1216     6078    19904 |    18141     9504     15 |  6.697 % |
|    3366612 |    1216     6078    19904 |    19955    15531     19 |  6.697 % |
|    5050023 |    1216     6078    19904 |    21951    19579     16 |  6.697 % |
===============================================================================
restarts              : 8451
conflicts             : 5433560        (7297 /sec)
decisions             : 5938254        (0.00 % random) (7974 /sec)
propagations          : 3103639462     (4167762 /sec)
conflict literals     : 115987010      (58.20 % deleted)
Memory used           : 17.00 MB
CPU time              : 744.678 s

SATISFIABLE
